
Gurobi 11.0.0 (linux64) logging started Tue Sep 17 01:38:34 2024

Set parameter LogFile to value "gurobi.log"
Set parameter InfUnbdInfo to value 1
Gurobi Optimizer version 11.0.0 build v11.0.0rc2 (linux64 - "Ubuntu 22.04.4 LTS")

CPU model: AMD EPYC 7V13 64-Core Processor, instruction set [SSE2|AVX|AVX2]
Thread count: 128 physical cores, 128 logical processors, using up to 32 threads

Optimize a model with 30 rows, 345 columns and 101 nonzeros
Model fingerprint: 0x0b3c9825
Model has 338 quadratic constraints
Model has 2 general constraints
Variable types: 93 continuous, 252 integer (0 binary)
Coefficient statistics:
  Matrix range     [1e+00, 8e+04]
  QMatrix range    [1e+00, 8e+04]
  QLMatrix range   [1e+00, 8e+04]
  Objective range  [1e+00, 1e+00]
  Bounds range     [1e+00, 6e+11]
  RHS range        [1e+00, 1e+00]
  QRHS range       [1e+00, 2e+06]
Warning: Model contains large bounds
         Consider reformulating model or setting NumericFocus parameter
         to avoid numerical issues.
Using branch priorities (all 0).
Presolve added 80 rows and 21 columns
Presolve time: 0.01s
Presolved: 1229 rows, 536 columns, 3281 nonzeros
Presolved model has 28 SOS constraint(s)
Presolved model has 198 bilinear constraint(s)
Warning: Model contains variables with very large bounds participating
         in product terms.
         Presolve was not able to compute smaller bounds for these variables.
         Consider bounding these variables or reformulating the model.


Solving non-convex MIQCP

Variable types: 167 continuous, 369 integer (163 binary)

Root relaxation: objective 9.616069e+03, 281 iterations, 0.00 seconds (0.00 work units)

    Nodes    |    Current Node    |     Objective Bounds      |     Work
 Expl Unexpl |  Obj  Depth IntInf | Incumbent    BestBd   Gap | It/Node Time

     0     0 9616.06894    0  116          - 9616.06894      -     -    0s
     0     0 9616.06894    0  119          - 9616.06894      -     -    0s
H    0     0                    185299.99993 9616.06894  94.8%     -    0s
H    0     0                    156499.99993 9616.06894  93.9%     -    0s
     0     0 9817.77669    0  220 156500.000 9817.77669  93.7%     -    0s
H    0     0                    131500.00000 9817.77753  92.5%     -    0s
     0     0 9817.77753    0  221 131500.000 9817.77753  92.5%     -    0s
     0     0 9825.83188    0  157 131500.000 9825.83188  92.5%     -    0s
H    0     0                    126700.00000 9825.83188  92.2%     -    0s
     0     0 9974.78069    0  150 126700.000 9974.78069  92.1%     -    0s
     0     0 10024.1102    0  169 126700.000 10024.1102  92.1%     -    0s
H    0     0                    118500.00000 10025.3407  91.5%     -    0s
     0     0 10025.3407    0  174 118500.000 10025.3407  91.5%     -    0s
     0     0 10029.7855    0  156 118500.000 10029.7855  91.5%     -    0s
H    0     0                    105658.99782 10029.7855  90.5%     -    0s
     0     0 10128.0285    0  148 105658.998 10128.0285  90.4%     -    0s
     0     0 10228.3123    0  183 105658.998 10228.3123  90.3%     -    0s
     0     0 10228.3123    0  183 105658.998 10228.3123  90.3%     -    0s
     0     0 10229.4730    0  185 105658.998 10229.4730  90.3%     -    0s
     0     0 10289.0000    0  172 105658.998 10289.0000  90.3%     -    0s
H    0     0                    96458.997818 10289.0000  89.3%     -    0s
     0     0 10389.4604    0  191 96458.9978 10389.4604  89.2%     -    0s
     0     0 10396.9021    0  182 96458.9978 10396.9021  89.2%     -    0s
     0     0 10933.4341    0  149 96458.9978 10933.4341  88.7%     -    0s
H    0     0                    96458.990854 10933.4341  88.7%     -    0s
H    0     2                    86895.999513 10933.4341  87.4%     -    1s
     0     2 10933.4341    0  147 86895.9995 10933.4341  87.4%     -    1s
H   27    28                    53295.999756 10933.4341  79.5%  32.0    1s
H   30    28                    52895.999756 10933.4341  79.3%  30.5    1s
H   68    48                    48096.000000 10933.4341  77.3%  45.0    2s
H   69    48                    48095.999756 10933.4341  77.3%  44.7    2s
H   99    57                    47279.999797 10933.4341  76.9%  38.7    2s
H  110    57                    42479.999797 10933.4341  74.3%  37.2    2s
H  176   130                    24480.000000 10933.4341  55.3%  29.5    2s
H  639   188                    24399.508392 10933.4341  55.2%  15.1    3s
*  748   219              25    22940.716599 10933.4341  52.3%  14.1    3s
*  827   219              25    22740.716599 10933.4341  51.9%  13.4    3s
* 1453   285              29    22641.165188 11360.1576  49.8%  11.7    3s
* 1704   344              23    22624.233038 11360.1576  49.8%  11.2    4s
H 1836   273                    22528.233038 13198.7654  41.4%  11.1    4s
H 1997   273                    21760.582594 13701.6800  37.0%  11.1    4s
  2660     0 18308.1957   24  134 21760.5826 17538.6772  19.4%  10.5    5s

Cutting planes:
  Learned: 10
  Gomory: 9
  Implied bound: 118
  MIR: 47
  StrongCG: 5
  Flow cover: 2
  Inf proof: 1
  RLT: 73
  Relax-and-lift: 5
  BQP: 2

Explored 2686 nodes (28969 simplex iterations) in 5.01 seconds (0.38 work units)
Thread count was 32 (of 128 available processors)

Solution count 10: 21760.6 22528.2 22624.2 ... 47280

Optimal solution found (tolerance 1.00e-10)
Warning: max constraint violation (2.9897e-03) exceeds tolerance
Warning: max general constraint violation (2.9897e-03) exceeds tolerance
  Piecewise linearization of function constraints often causes big violation.
  Try to adjust the settings of the related parameters, such as FuncPieces.
Best objective 2.176058259394e+04, best bound 2.176058259394e+04, gap 0.0000%
